result&benchmarks/Data/Ex1/verify/Output/id_trans_process_dc_iter1Output/Counterexample.3.smt2
(set-info :source |printed by MathSAT|)
(declare-fun |main::tmp_var_2_int@2| () (_ BitVec 32))
(declare-fun |main::tmp_var_3_int@2| () (_ BitVec 32))
(declare-fun |main::nlen@3| () (_ BitVec 32))
(declare-fun |main::local_28@2| () (_ BitVec 32))
(assert (let ((.def_13 (bvashr |main::tmp_var_3_int@2| (_ bv31 32))))(let ((.def_27 (bvlshr .def_13 (_ bv29 32))))(let ((.def_28 (bvadd |main::tmp_var_3_int@2| .def_27)))(let ((.def_30 (bvashr .def_28 (_ bv3 32))))(let ((.def_31 (bvslt |main::nlen@3| .def_30)))(let ((.def_24 (= |main::nlen@3| (_ bv0 32))))(let ((.def_15 (bvlshr .def_13 (_ bv27 32))))(let ((.def_16 (bvadd |main::tmp_var_3_int@2| .def_15)))(let ((.def_18 (bvashr .def_16 (_ bv5 32))))(let ((.def_19 (= |main::tmp_var_2_int@2| .def_18)))(let ((.def_25 (and .def_19 .def_24)))(let ((.def_152 (and .def_25 .def_31)))(let ((.def_35 (bvslt |main::nlen@3| |main::local_28@2|)))(let ((.def_153 (and .def_35 .def_152)))(let ((.def_47 ((_ extract 31 31) |main::nlen@3|)))(let ((.def_48 (= .def_47 (_ bv1 1))))(let ((.def_51 (not .def_48)))(let ((.def_154 (and .def_51 .def_153)))(let ((.def_155 (and .def_35 .def_154)))(let ((.def_115 (bvslt |main::nlen@3| (_ bv4294967293 32))))(let ((.def_118 (not .def_115)))(let ((.def_156 (and .def_118 .def_155)))(let ((.def_129 (bvashr |main::nlen@3| (_ bv31 32))))(let ((.def_131 (bvlshr .def_129 (_ bv30 32))))(let ((.def_132 (bvadd |main::nlen@3| .def_131)))(let ((.def_134 (bvashr .def_132 (_ bv2 32))))(let ((.def_136 (bvslt .def_134 |main::tmp_var_2_int@2|)))(let ((.def_137 (not .def_136)))(let ((.def_157 (and .def_137 .def_156))).def_157))))))))))))))))))))))))))))))