result&benchmarks/Data/Ex1/verify/Output/id_trans_process_dc_iter1Output/Counterexample.3.txt
none:	N37 -{INIT GLOBAL VARS}-> N108
/usr/include/assert.h, lines 69-71:	N108 -{void __assert_fail(const char *__assertion, const char *__file, unsigned int __line, const char *__function);}-> N109
/usr/include/assert.h, lines 74-76:	N109 -{void __assert_perror_fail(int __errnum, const char *__file, unsigned int __line, const char *__function);}-> N110
/usr/include/assert.h, lines 81-82:	N110 -{void __assert(const char *__assertion, const char *__file, int __line);}-> N111
/usr/include/x86_64-linux-gnu/bits/types.h, line 31:	N111 -{typedef unsigned char __u_char;}-> N112
/usr/include/x86_64-linux-gnu/bits/types.h, line 32:	N112 -{typedef unsigned short int __u_short;}-> N113
/usr/include/x86_64-linux-gnu/bits/types.h, line 33:	N113 -{typedef unsigned int __u_int;}-> N114
/usr/include/x86_64-linux-gnu/bits/types.h, line 34:	N114 -{typedef unsigned long int __u_long;}-> N115
/usr/include/x86_64-linux-gnu/bits/types.h, line 37:	N115 -{typedef signed char __int8_t;}-> N116
/usr/include/x86_64-linux-gnu/bits/types.h, line 38:	N116 -{typedef unsigned char __uint8_t;}-> N117
/usr/include/x86_64-linux-gnu/bits/types.h, line 39:	N117 -{typedef signed short int __int16_t;}-> N118
/usr/include/x86_64-linux-gnu/bits/types.h, line 40:	N118 -{typedef unsigned short int __uint16_t;}-> N119
/usr/include/x86_64-linux-gnu/bits/types.h, line 41:	N119 -{typedef signed int __int32_t;}-> N120
/usr/include/x86_64-linux-gnu/bits/types.h, line 42:	N120 -{typedef unsigned int __uint32_t;}-> N121
/usr/include/x86_64-linux-gnu/bits/types.h, line 44:	N121 -{typedef signed long int __int64_t;}-> N122
/usr/include/x86_64-linux-gnu/bits/types.h, line 45:	N122 -{typedef unsigned long int __uint64_t;}-> N123
/usr/include/x86_64-linux-gnu/bits/types.h, line 52:	N123 -{typedef __int8_t __int_least8_t;}-> N124
/usr/include/x86_64-linux-gnu/bits/types.h, line 53:	N124 -{typedef __uint8_t __uint_least8_t;}-> N125
/usr/include/x86_64-linux-gnu/bits/types.h, line 54:	N125 -{typedef __int16_t __int_least16_t;}-> N126
/usr/include/x86_64-linux-gnu/bits/types.h, line 55:	N126 -{typedef __uint16_t __uint_least16_t;}-> N127
/usr/include/x86_64-linux-gnu/bits/types.h, line 56:	N127 -{typedef __int32_t __int_least32_t;}-> N128
/usr/include/x86_64-linux-gnu/bits/types.h, line 57:	N128 -{typedef __uint32_t __uint_least32_t;}-> N129
/usr/include/x86_64-linux-gnu/bits/types.h, line 58:	N129 -{typedef __int64_t __int_least64_t;}-> N130
/usr/include/x86_64-linux-gnu/bits/types.h, line 59:	N130 -{typedef __uint64_t __uint_least64_t;}-> N131
/usr/include/x86_64-linux-gnu/bits/types.h, line 63:	N131 -{typedef long int __quad_t;}-> N132
/usr/include/x86_64-linux-gnu/bits/types.h, line 64:	N132 -{typedef unsigned long int __u_quad_t;}-> N133
/usr/include/x86_64-linux-gnu/bits/types.h, line 72:	N133 -{typedef long int __intmax_t;}-> N134
/usr/include/x86_64-linux-gnu/bits/types.h, line 73:	N134 -{typedef unsigned long int __uintmax_t;}-> N135
/usr/include/x86_64-linux-gnu/bits/types.h, line 145:	N135 -{typedef unsigned long int __dev_t;}-> N136
/usr/include/x86_64-linux-gnu/bits/types.h, line 146:	N136 -{typedef unsigned int __uid_t;}-> N137
/usr/include/x86_64-linux-gnu/bits/types.h, line 147:	N137 -{typedef unsigned int __gid_t;}-> N138
/usr/include/x86_64-linux-gnu/bits/types.h, line 148:	N138 -{typedef unsigned long int __ino_t;}-> N139
/usr/include/x86_64-linux-gnu/bits/types.h, line 149:	N139 -{typedef unsigned long int __ino64_t;}-> N140
/usr/include/x86_64-linux-gnu/bits/types.h, line 150:	N140 -{typedef unsigned int __mode_t;}-> N141
/usr/include/x86_64-linux-gnu/bits/types.h, line 151:	N141 -{typedef unsigned long int __nlink_t;}-> N142
/usr/include/x86_64-linux-gnu/bits/types.h, line 152:	N142 -{typedef long int __off_t;}-> N143
/usr/include/x86_64-linux-gnu/bits/types.h, line 153:	N143 -{typedef long int __off64_t;}-> N144
/usr/include/x86_64-linux-gnu/bits/types.h, line 154:	N144 -{typedef int __pid_t;}-> N145
/usr/include/x86_64-linux-gnu/bits/types.h, line 155:	N145 -{struct __anon_type___fsid_t {   int __val[2]; } ;}-> N146
/usr/include/x86_64-linux-gnu/bits/types.h, line 155:	N146 -{typedef struct __anon_type___fsid_t __fsid_t;}-> N147
/usr/include/x86_64-linux-gnu/bits/types.h, line 156:	N147 -{typedef long int __clock_t;}-> N148
/usr/include/x86_64-linux-gnu/bits/types.h, line 157:	N148 -{typedef unsigned long int __rlim_t;}-> N149
/usr/include/x86_64-linux-gnu/bits/types.h, line 158:	N149 -{typedef unsigned long int __rlim64_t;}-> N150
/usr/include/x86_64-linux-gnu/bits/types.h, line 159:	N150 -{typedef unsigned int __id_t;}-> N151
/usr/include/x86_64-linux-gnu/bits/types.h, line 160:	N151 -{typedef long int __time_t;}-> N152
/usr/include/x86_64-linux-gnu/bits/types.h, line 161:	N152 -{typedef unsigned int __useconds_t;}-> N153
/usr/include/x86_64-linux-gnu/bits/types.h, line 162:	N153 -{typedef long int __suseconds_t;}-> N154
/usr/include/x86_64-linux-gnu/bits/types.h, line 163:	N154 -{typedef long int __suseconds64_t;}-> N155
/usr/include/x86_64-linux-gnu/bits/types.h, line 165:	N155 -{typedef int __daddr_t;}-> N156
/usr/include/x86_64-linux-gnu/bits/types.h, line 166:	N156 -{typedef int __key_t;}-> N157
/usr/include/x86_64-linux-gnu/bits/types.h, line 169:	N157 -{typedef int __clockid_t;}-> N158
/usr/include/x86_64-linux-gnu/bits/types.h, line 172:	N158 -{typedef void *__timer_t;}-> N159
/usr/include/x86_64-linux-gnu/bits/types.h, line 175:	N159 -{typedef long int __blksize_t;}-> N160
/usr/include/x86_64-linux-gnu/bits/types.h, line 180:	N160 -{typedef long int __blkcnt_t;}-> N161
/usr/include/x86_64-linux-gnu/bits/types.h, line 181:	N161 -{typedef long int __blkcnt64_t;}-> N162
/usr/include/x86_64-linux-gnu/bits/types.h, line 184:	N162 -{typedef unsigned long int __fsblkcnt_t;}-> N163
/usr/include/x86_64-linux-gnu/bits/types.h, line 185:	N163 -{typedef unsigned long int __fsblkcnt64_t;}-> N164
/usr/include/x86_64-linux-gnu/bits/types.h, line 188:	N164 -{typedef unsigned long int __fsfilcnt_t;}-> N165
/usr/include/x86_64-linux-gnu/bits/types.h, line 189:	N165 -{typedef unsigned long int __fsfilcnt64_t;}-> N166
/usr/include/x86_64-linux-gnu/bits/types.h, line 192:	N166 -{typedef long int __fsword_t;}-> N167
/usr/include/x86_64-linux-gnu/bits/types.h, line 194:	N167 -{typedef long int __ssize_t;}-> N168
/usr/include/x86_64-linux-gnu/bits/types.h, line 197:	N168 -{typedef long int __syscall_slong_t;}-> N169
/usr/include/x86_64-linux-gnu/bits/types.h, line 199:	N169 -{typedef unsigned long int __syscall_ulong_t;}-> N170
/usr/include/x86_64-linux-gnu/bits/types.h, line 203:	N170 -{typedef __off64_t __loff_t;}-> N171
/usr/include/x86_64-linux-gnu/bits/types.h, line 204:	N171 -{typedef char *__caddr_t;}-> N172
/usr/include/x86_64-linux-gnu/bits/types.h, line 207:	N172 -{typedef long int __intptr_t;}-> N173
/usr/include/x86_64-linux-gnu/bits/types.h, line 210:	N173 -{typedef unsigned int __socklen_t;}-> N174
/usr/include/x86_64-linux-gnu/bits/types.h, line 215:	N174 -{typedef int __sig_atomic_t;}-> N175
/usr/include/x86_64-linux-gnu/bits/stdint-intn.h, line 24:	N175 -{typedef __int8_t int8_t;}-> N176
/usr/include/x86_64-linux-gnu/bits/stdint-intn.h, line 25:	N176 -{typedef __int16_t int16_t;}-> N177
/usr/include/x86_64-linux-gnu/bits/stdint-intn.h, line 26:	N177 -{typedef __int32_t int32_t;}-> N178
/usr/include/x86_64-linux-gnu/bits/stdint-intn.h, line 27:	N178 -{typedef __int64_t int64_t;}-> N179
/usr/include/x86_64-linux-gnu/bits/stdint-uintn.h, line 24:	N179 -{typedef __uint8_t uint8_t;}-> N180
/usr/include/x86_64-linux-gnu/bits/stdint-uintn.h, line 25:	N180 -{typedef __uint16_t uint16_t;}-> N181
/usr/include/x86_64-linux-gnu/bits/stdint-uintn.h, line 26:	N181 -{typedef __uint32_t uint32_t;}-> N182
/usr/include/x86_64-linux-gnu/bits/stdint-uintn.h, line 27:	N182 -{typedef __uint64_t uint64_t;}-> N183
/usr/include/stdint.h, line 43:	N183 -{typedef __int_least8_t int_least8_t;}-> N184
/usr/include/stdint.h, line 44:	N184 -{typedef __int_least16_t int_least16_t;}-> N185
/usr/include/stdint.h, line 45:	N185 -{typedef __int_least32_t int_least32_t;}-> N186
/usr/include/stdint.h, line 46:	N186 -{typedef __int_least64_t int_least64_t;}-> N187
/usr/include/stdint.h, line 49:	N187 -{typedef __uint_least8_t uint_least8_t;}-> N188
/usr/include/stdint.h, line 50:	N188 -{typedef __uint_least16_t uint_least16_t;}-> N189
/usr/include/stdint.h, line 51:	N189 -{typedef __uint_least32_t uint_least32_t;}-> N190
/usr/include/stdint.h, line 52:	N190 -{typedef __uint_least64_t uint_least64_t;}-> N191
/usr/include/stdint.h, line 58:	N191 -{typedef signed char int_fast8_t;}-> N192
/usr/include/stdint.h, line 60:	N192 -{typedef long int int_fast16_t;}-> N193
/usr/include/stdint.h, line 61:	N193 -{typedef long int int_fast32_t;}-> N194
/usr/include/stdint.h, line 62:	N194 -{typedef long int int_fast64_t;}-> N195
/usr/include/stdint.h, line 71:	N195 -{typedef unsigned char uint_fast8_t;}-> N196
/usr/include/stdint.h, line 73:	N196 -{typedef unsigned long int uint_fast16_t;}-> N197
/usr/include/stdint.h, line 74:	N197 -{typedef unsigned long int uint_fast32_t;}-> N198
/usr/include/stdint.h, line 75:	N198 -{typedef unsigned long int uint_fast64_t;}-> N199
/usr/include/stdint.h, line 87:	N199 -{typedef long int intptr_t;}-> N200
/usr/include/stdint.h, line 90:	N200 -{typedef unsigned long int uintptr_t;}-> N201
/usr/include/stdint.h, line 101:	N201 -{typedef __intmax_t intmax_t;}-> N202
/usr/include/stdint.h, line 102:	N202 -{typedef __uintmax_t uintmax_t;}-> N203
/usr/lib/gcc/x86_64-linux-gnu/11/include/stddef.h, line 209:	N203 -{typedef unsigned long int size_t;}-> N204
/usr/lib/gcc/x86_64-linux-gnu/11/include/stddef.h, line 321:	N204 -{typedef int wchar_t;}-> N205
/usr/include/stdlib.h, lines 59-63:	N205 -{struct __anon_type_div_t {   int quot;   int rem; } ;}-> N206
/usr/include/stdlib.h, lines 59-63:	N206 -{typedef struct __anon_type_div_t div_t;}-> N207
/usr/include/stdlib.h, lines 67-71:	N207 -{struct __anon_type_ldiv_t {   long int quot;   long int rem; } ;}-> N208
/usr/include/stdlib.h, lines 67-71:	N208 -{typedef struct __anon_type_ldiv_t ldiv_t;}-> N209
/usr/include/stdlib.h, lines 77-81:	N209 -{struct __anon_type_lldiv_t {   long long int quot;   long long int rem; } ;}-> N210
/usr/include/stdlib.h, lines 77-81:	N210 -{typedef struct __anon_type_lldiv_t lldiv_t;}-> N211
/usr/include/stdlib.h, line 98:	N211 -{size_t __ctype_get_mb_cur_max();}-> N212
/usr/include/stdlib.h, lines 102-103:	N212 -{double atof(const char *__nptr);}-> N213
/usr/include/stdlib.h, lines 105-106:	N213 -{int atoi(const char *__nptr);}-> N214
/usr/include/stdlib.h, lines 108-109:	N214 -{long int atol(const char *__nptr);}-> N215
/usr/include/stdlib.h, lines 113-114:	N215 -{long long int atoll(const char *__nptr);}-> N216
/usr/include/stdlib.h, lines 118-120:	N216 -{double strtod(const char *__nptr, char **__endptr);}-> N217
/usr/include/stdlib.h, lines 124-125:	N217 -{float strtof(const char *__nptr, char **__endptr);}-> N218
/usr/include/stdlib.h, lines 127-129:	N218 -{long double strtold(const char *__nptr, char **__endptr);}-> N219
/usr/include/stdlib.h, lines 177-179:	N219 -{long int strtol(const char *__nptr, char **__endptr, int __base);}-> N220
/usr/include/stdlib.h, lines 181-183:	N220 -{unsigned long int strtoul(const char *__nptr, char **__endptr, int __base);}-> N221
/usr/include/stdlib.h, lines 188-190:	N221 -{long long int strtoq(const char *__nptr, char **__endptr, int __base);}-> N222
/usr/include/stdlib.h, lines 193-195:	N222 -{unsigned long long int strtouq(const char *__nptr, char **__endptr, int __base);}-> N223
/usr/include/stdlib.h, lines 201-203:	N223 -{long long int strtoll(const char *__nptr, char **__endptr, int __base);}-> N224
/usr/include/stdlib.h, lines 206-208:	N224 -{unsigned long long int strtoull(const char *__nptr, char **__endptr, int __base);}-> N225
/usr/include/stdlib.h, line 386:	N225 -{char *l64a(long int __n);}-> N226
/usr/include/stdlib.h, lines 389-390:	N226 -{long int a64l(const char *__s);}-> N227
/usr/include/x86_64-linux-gnu/sys/types.h, line 33:	N227 -{typedef __u_char u_char;}-> N228
/usr/include/x86_64-linux-gnu/sys/types.h, line 34:	N228 -{typedef __u_short u_short;}-> N229
/usr/include/x86_64-linux-gnu/sys/types.h, line 35:	N229 -{typedef __u_int u_int;}-> N230
/usr/include/x86_64-linux-gnu/sys/types.h, line 36:	N230 -{typedef __u_long u_long;}-> N231
/usr/include/x86_64-linux-gnu/sys/types.h, line 37:	N231 -{typedef __quad_t quad_t;}-> N232
/usr/include/x86_64-linux-gnu/sys/types.h, line 38:	N232 -{typedef __u_quad_t u_quad_t;}-> N233
/usr/include/x86_64-linux-gnu/sys/types.h, line 39:	N233 -{typedef __fsid_t fsid_t;}-> N234
/usr/include/x86_64-linux-gnu/sys/types.h, line 42:	N234 -{typedef __loff_t loff_t;}-> N235
/usr/include/x86_64-linux-gnu/sys/types.h, line 47:	N235 -{typedef __ino_t ino_t;}-> N236
/usr/include/x86_64-linux-gnu/sys/types.h, line 59:	N236 -{typedef __dev_t dev_t;}-> N237
/usr/include/x86_64-linux-gnu/sys/types.h, line 64:	N237 -{typedef __gid_t gid_t;}-> N238
/usr/include/x86_64-linux-gnu/sys/types.h, line 69:	N238 -{typedef __mode_t mode_t;}-> N239
/usr/include/x86_64-linux-gnu/sys/types.h, line 74:	N239 -{typedef __nlink_t nlink_t;}-> N240
/usr/include/x86_64-linux-gnu/sys/types.h, line 79:	N240 -{typedef __uid_t uid_t;}-> N241
/usr/include/x86_64-linux-gnu/sys/types.h, line 85:	N241 -{typedef __off_t off_t;}-> N242
/usr/include/x86_64-linux-gnu/sys/types.h, line 97:	N242 -{typedef __pid_t pid_t;}-> N243
/usr/include/x86_64-linux-gnu/sys/types.h, line 103:	N243 -{typedef __id_t id_t;}-> N244
/usr/include/x86_64-linux-gnu/sys/types.h, line 108:	N244 -{typedef __ssize_t ssize_t;}-> N245
/usr/include/x86_64-linux-gnu/sys/types.h, line 114:	N245 -{typedef __daddr_t daddr_t;}-> N246
/usr/include/x86_64-linux-gnu/sys/types.h, line 115:	N246 -{typedef __caddr_t caddr_t;}-> N247
/usr/include/x86_64-linux-gnu/sys/types.h, line 121:	N247 -{typedef __key_t key_t;}-> N248
/usr/include/x86_64-linux-gnu/bits/types/clock_t.h, line 7:	N248 -{typedef __clock_t clock_t;}-> N249
/usr/include/x86_64-linux-gnu/bits/types/clockid_t.h, line 7:	N249 -{typedef __clockid_t clockid_t;}-> N250
/usr/include/x86_64-linux-gnu/bits/types/time_t.h, line 10:	N250 -{typedef __time_t time_t;}-> N251
/usr/include/x86_64-linux-gnu/bits/types/timer_t.h, line 7:	N251 -{typedef __timer_t timer_t;}-> N252
/usr/include/x86_64-linux-gnu/sys/types.h, line 148:	N252 -{typedef unsigned long int ulong;}-> N253
/usr/include/x86_64-linux-gnu/sys/types.h, line 149:	N253 -{typedef unsigned short int ushort;}-> N254
/usr/include/x86_64-linux-gnu/sys/types.h, line 150:	N254 -{typedef unsigned int uint;}-> N255
/usr/include/x86_64-linux-gnu/sys/types.h, line 158:	N255 -{typedef __uint8_t u_int8_t;}-> N256
/usr/include/x86_64-linux-gnu/sys/types.h, line 159:	N256 -{typedef __uint16_t u_int16_t;}-> N257
/usr/include/x86_64-linux-gnu/sys/types.h, line 160:	N257 -{typedef __uint32_t u_int32_t;}-> N258
/usr/include/x86_64-linux-gnu/sys/types.h, line 161:	N258 -{typedef __uint64_t u_int64_t;}-> N259
/usr/include/x86_64-linux-gnu/sys/types.h, line 164:	N259 -{typedef signed int register_t;}-> N260
/usr/include/x86_64-linux-gnu/bits/byteswap.h, lines 33-41:	N260 -{__uint16_t __bswap_16(__uint16_t __bsx);}-> N261
/usr/include/x86_64-linux-gnu/bits/byteswap.h, lines 48-56:	N261 -{__uint32_t __bswap_32(__uint32_t __bsx);}-> N262
/usr/include/x86_64-linux-gnu/bits/byteswap.h, lines 69-77:	N262 -{__uint64_t __bswap_64(__uint64_t __bsx);}-> N263
/usr/include/x86_64-linux-gnu/bits/uintn-identity.h, lines 32-36:	N263 -{__uint16_t __uint16_identity(__uint16_t __x);}-> N264
/usr/include/x86_64-linux-gnu/bits/uintn-identity.h, lines 38-42:	N264 -{__uint32_t __uint32_identity(__uint32_t __x);}-> N265
/usr/include/x86_64-linux-gnu/bits/uintn-identity.h, lines 44-48:	N265 -{__uint64_t __uint64_identity(__uint64_t __x);}-> N266
/usr/include/x86_64-linux-gnu/bits/types/__sigset_t.h, lines 5-8:	N266 -{struct __anon_type___sigset_t {   unsigned long int __val[32UL]; } ;}-> N267
/usr/include/x86_64-linux-gnu/bits/types/__sigset_t.h, lines 5-8:	N267 -{typedef struct __anon_type___sigset_t __sigset_t;}-> N268
/usr/include/x86_64-linux-gnu/bits/types/sigset_t.h, line 7:	N268 -{typedef __sigset_t sigset_t;}-> N269
/usr/include/x86_64-linux-gnu/bits/types/struct_timeval.h, lines 8-17:	N269 -{struct timeval {   __time_t tv_sec;   __suseconds_t tv_usec; } ;}-> N270
/usr/include/x86_64-linux-gnu/bits/types/struct_timespec.h, lines 11-31:	N270 -{struct timespec {   __time_t tv_sec;   __syscall_slong_t tv_nsec; } ;}-> N271
/usr/include/x86_64-linux-gnu/sys/select.h, line 43:	N271 -{typedef __suseconds_t suseconds_t;}-> N272
/usr/include/x86_64-linux-gnu/sys/select.h, line 49:	N272 -{typedef long int __fd_mask;}-> N273
/usr/include/x86_64-linux-gnu/sys/select.h, lines 59-70:	N273 -{struct __anon_type_fd_set {   __fd_mask __fds_bits[32]; } ;}-> N274
/usr/include/x86_64-linux-gnu/sys/select.h, lines 59-70:	N274 -{typedef struct __anon_type_fd_set fd_set;}-> N275
/usr/include/x86_64-linux-gnu/sys/select.h, line 77:	N275 -{typedef __fd_mask fd_mask;}-> N276
/usr/include/x86_64-linux-gnu/sys/select.h, lines 102-105:	N276 -{int select(int __nfds, fd_set *__readfds, fd_set *__writefds, fd_set *__exceptfds, struct timeval *__timeout);}-> N277
/usr/include/x86_64-linux-gnu/sys/select.h, lines 127-131:	N277 -{int pselect(int __nfds, fd_set *__readfds, fd_set *__writefds, fd_set *__exceptfds, const struct timespec *__timeout, const __sigset_t *__sigmask);}-> N278
/usr/include/x86_64-linux-gnu/sys/types.h, line 185:	N278 -{typedef __blksize_t blksize_t;}-> N279
/usr/include/x86_64-linux-gnu/sys/types.h, line 192:	N279 -{typedef __blkcnt_t blkcnt_t;}-> N280
/usr/include/x86_64-linux-gnu/sys/types.h, line 196:	N280 -{typedef __fsblkcnt_t fsblkcnt_t;}-> N281
/usr/include/x86_64-linux-gnu/sys/types.h, line 200:	N281 -{typedef __fsfilcnt_t fsfilcnt_t;}-> N282
/usr/include/x86_64-linux-gnu/bits/atomic_wide_counter.h, lines 28-32:	N282 -{struct __anon_type_0 {   unsigned int __low;   unsigned int __high; } ;}-> N283
/usr/include/x86_64-linux-gnu/bits/atomic_wide_counter.h, lines 25-33:	N283 -{union __anon_type___atomic_wide_counter {   unsigned long long int __value64;   struct __anon_type_0 __value32; } ;}-> N284
/usr/include/x86_64-linux-gnu/bits/atomic_wide_counter.h, lines 25-33:	N284 -{typedef union __anon_type___atomic_wide_counter __atomic_wide_counter;}-> N285
/usr/include/x86_64-linux-gnu/bits/thread-shared-types.h, lines 51-55:	N285 -{struct __pthread_internal_list {   struct __pthread_internal_list *__prev;   struct __pthread_internal_list *__next; } ;}-> N286
/usr/include/x86_64-linux-gnu/bits/thread-shared-types.h, lines 51-55:	N286 -{typedef struct __pthread_internal_list __pthread_list_t;}-> N287
/usr/include/x86_64-linux-gnu/bits/thread-shared-types.h, lines 57-60:	N287 -{struct __pthread_internal_slist {   struct __pthread_internal_slist *__next; } ;}-> N288
/usr/include/x86_64-linux-gnu/bits/thread-shared-types.h, lines 57-60:	N288 -{typedef struct __pthread_internal_slist __pthread_slist_t;}-> N289
/usr/include/x86_64-linux-gnu/bits/struct_mutex.h, lines 22-53:	N289 -{struct __pthread_mutex_s {   int __lock;   unsigned int __count;   int __owner;   unsigned int __nusers;   int __kind;   short __spins;   short __elision;   __pthread_list_t __list; } ;}-> N290
/usr/include/x86_64-linux-gnu/bits/struct_rwlock.h, lines 23-55:	N290 -{struct __pthread_rwlock_arch_t {   unsigned int __readers;   unsigned int __writers;   unsigned int __wrphase_futex;   unsigned int __writers_futex;   unsigned int __pad3;   unsigned int __pad4;   int __cur_writer;   int __shared;   signed char __rwelision;   unsigned char __pad1[7];   unsigned long int __pad2;   unsigned int __flags; } ;}-> N291
/usr/include/x86_64-linux-gnu/bits/thread-shared-types.h, lines 94-103:	N291 -{struct __pthread_cond_s {   __atomic_wide_counter __wseq;   __atomic_wide_counter __g1_start;   unsigned int __g_refs[2];   unsigned int __g_size[2];   unsigned int __g1_orig_size;   unsigned int __wrefs;   unsigned int __g_signals[2]; } ;}-> N292
/usr/include/x86_64-linux-gnu/bits/thread-shared-types.h, line 105:	N292 -{typedef unsigned int __tss_t;}-> N293
/usr/include/x86_64-linux-gnu/bits/thread-shared-types.h, line 106:	N293 -{typedef unsigned long int __thrd_t;}-> N294
/usr/include/x86_64-linux-gnu/bits/thread-shared-types.h, lines 108-111:	N294 -{struct __anon_type___once_flag {   int __data; } ;}-> N295
/usr/include/x86_64-linux-gnu/bits/thread-shared-types.h, lines 108-111:	N295 -{typedef struct __anon_type___once_flag __once_flag;}-> N296
/usr/include/x86_64-linux-gnu/bits/pthreadtypes.h, line 27:	N296 -{typedef unsigned long int pthread_t;}-> N297
/usr/include/x86_64-linux-gnu/bits/pthreadtypes.h, lines 32-36:	N297 -{union __anon_type_pthread_mutexattr_t {   char __size[4];   int __align; } ;}-> N298
/usr/include/x86_64-linux-gnu/bits/pthreadtypes.h, lines 32-36:	N298 -{typedef union __anon_type_pthread_mutexattr_t pthread_mutexattr_t;}-> N299
/usr/include/x86_64-linux-gnu/bits/pthreadtypes.h, lines 41-45:	N299 -{union __anon_type_pthread_condattr_t {   char __size[4];   int __align; } ;}-> N300
/usr/include/x86_64-linux-gnu/bits/pthreadtypes.h, lines 41-45:	N300 -{typedef union __anon_type_pthread_mutexattr_t pthread_condattr_t;}-> N301
/usr/include/x86_64-linux-gnu/bits/pthreadtypes.h, line 49:	N301 -{typedef unsigned int pthread_key_t;}-> N302
/usr/include/x86_64-linux-gnu/bits/pthreadtypes.h, line 53:	N302 -{typedef int pthread_once_t;}-> N303
/usr/include/x86_64-linux-gnu/bits/pthreadtypes.h, lines 56-60:	N303 -{union pthread_attr_t {   char __size[56];   long int __align; } ;}-> N304
/usr/include/x86_64-linux-gnu/bits/pthreadtypes.h, line 62:	N304 -{typedef union pthread_attr_t pthread_attr_t;}-> N305
/usr/include/x86_64-linux-gnu/bits/pthreadtypes.h, lines 67-72:	N305 -{union __anon_type_pthread_mutex_t {   struct __pthread_mutex_s __data;   char __size[40];   long int __align; } ;}-> N306
/usr/include/x86_64-linux-gnu/bits/pthreadtypes.h, lines 67-72:	N306 -{typedef union __anon_type_pthread_mutex_t pthread_mutex_t;}-> N307
/usr/include/x86_64-linux-gnu/bits/pthreadtypes.h, lines 75-80:	N307 -{union __anon_type_pthread_cond_t {   struct __pthread_cond_s __data;   char __size[48];   long long int __align; } ;}-> N308
/usr/include/x86_64-linux-gnu/bits/pthreadtypes.h, lines 75-80:	N308 -{typedef union __anon_type_pthread_cond_t pthread_cond_t;}-> N309
/usr/include/x86_64-linux-gnu/bits/pthreadtypes.h, lines 86-91:	N309 -{union __anon_type_pthread_rwlock_t {   struct __pthread_rwlock_arch_t __data;   char __size[56];   long int __align; } ;}-> N310
/usr/include/x86_64-linux-gnu/bits/pthreadtypes.h, lines 86-91:	N310 -{typedef union __anon_type_pthread_rwlock_t pthread_rwlock_t;}-> N311
/usr/include/x86_64-linux-gnu/bits/pthreadtypes.h, lines 93-97:	N311 -{union __anon_type_pthread_rwlockattr_t {   char __size[8];   long int __align; } ;}-> N312
/usr/include/x86_64-linux-gnu/bits/pthreadtypes.h, lines 93-97:	N312 -{typedef union __anon_type_pthread_rwlockattr_t pthread_rwlockattr_t;}-> N313
/usr/include/x86_64-linux-gnu/bits/pthreadtypes.h, line 103:	N313 -{typedef volatile int pthread_spinlock_t;}-> N314
/usr/include/x86_64-linux-gnu/bits/pthreadtypes.h, lines 108-112:	N314 -{union __anon_type_pthread_barrier_t {   char __size[32];   long int __align; } ;}-> N315
/usr/include/x86_64-linux-gnu/bits/pthreadtypes.h, lines 108-112:	N315 -{typedef union __anon_type_pthread_barrier_t pthread_barrier_t;}-> N316
/usr/include/x86_64-linux-gnu/bits/pthreadtypes.h, lines 114-118:	N316 -{union __anon_type_pthread_barrierattr_t {   char __size[4];   int __align; } ;}-> N317
/usr/include/x86_64-linux-gnu/bits/pthreadtypes.h, lines 114-118:	N317 -{typedef union __anon_type_pthread_mutexattr_t pthread_barrierattr_t;}-> N318
/usr/include/stdlib.h, line 402:	N318 -{long int random();}-> N319
/usr/include/stdlib.h, line 405:	N319 -{void srandom(unsigned int __seed);}-> N320
/usr/include/stdlib.h, lines 411-412:	N320 -{char *initstate(unsigned int __seed, char *__statebuf, size_t __statelen);}-> N321
/usr/include/stdlib.h, line 416:	N321 -{char *setstate(char *__statebuf);}-> N322
/usr/include/stdlib.h, lines 424-433:	N322 -{struct random_data {   int32_t *fptr;   int32_t *rptr;   int32_t *state;   int rand_type;   int rand_deg;   int rand_sep;   int32_t *end_ptr; } ;}-> N323
/usr/include/stdlib.h, lines 435-436:	N323 -{int random_r(struct random_data *__buf, int32_t *__result);}-> N324
/usr/include/stdlib.h, lines 438-439:	N324 -{int srandom_r(unsigned int __seed, struct random_data *__buf);}-> N325
/usr/include/stdlib.h, lines 441-444:	N325 -{int initstate_r(unsigned int __seed, char *__statebuf, size_t __statelen, struct random_data *__buf);}-> N326
/usr/include/stdlib.h, lines 446-448:	N326 -{int setstate_r(char *__statebuf, struct random_data *__buf);}-> N327
/usr/include/stdlib.h, line 454:	N327 -{int rand();}-> N328
/usr/include/stdlib.h, line 456:	N328 -{void srand(unsigned int __seed);}-> N329
/usr/include/stdlib.h, line 460:	N329 -{int rand_r(unsigned int *__seed);}-> N330
/usr/include/stdlib.h, line 468:	N330 -{double drand48();}-> N331
/usr/include/stdlib.h, line 469:	N331 -{double erand48(unsigned short int __xsubi[3]);}-> N332
/usr/include/stdlib.h, line 472:	N332 -{long int lrand48();}-> N333
/usr/include/stdlib.h, lines 473-474:	N333 -{long int nrand48(unsigned short int __xsubi[3]);}-> N334
/usr/include/stdlib.h, line 477:	N334 -{long int mrand48();}-> N335
/usr/include/stdlib.h, lines 478-479:	N335 -{long int jrand48(unsigned short int __xsubi[3]);}-> N336
/usr/include/stdlib.h, line 482:	N336 -{void srand48(long int __seedval);}-> N337
/usr/include/stdlib.h, lines 483-484:	N337 -{unsigned short int *seed48(unsigned short int __seed16v[3]);}-> N338
/usr/include/stdlib.h, line 485:	N338 -{void lcong48(unsigned short int __param[7]);}-> N339
/usr/include/stdlib.h, lines 491-499:	N339 -{struct drand48_data {   unsigned short int __x[3];   unsigned short int __old_x[3];   unsigned short int __c;   unsigned short int __init;   unsigned long long int __a; } ;}-> N340
/usr/include/stdlib.h, lines 502-503:	N340 -{int drand48_r(struct drand48_data *__buffer, double *__result);}-> N341
/usr/include/stdlib.h, lines 504-506:	N341 -{int erand48_r(unsigned short int __xsubi[3], struct drand48_data *__buffer, double *__result);}-> N342
/usr/include/stdlib.h, lines 509-511:	N342 -{int lrand48_r(struct drand48_data *__buffer, long int *__result);}-> N343
/usr/include/stdlib.h, lines 512-515:	N343 -{int nrand48_r(unsigned short int __xsubi[3], struct drand48_data *__buffer, long int *__result);}-> N344
/usr/include/stdlib.h, lines 518-520:	N344 -{int mrand48_r(struct drand48_data *__buffer, long int *__result);}-> N345
/usr/include/stdlib.h, lines 521-524:	N345 -{int jrand48_r(unsigned short int __xsubi[3], struct drand48_data *__buffer, long int *__result);}-> N346
/usr/include/stdlib.h, lines 527-528:	N346 -{int srand48_r(long int __seedval, struct drand48_data *__buffer);}-> N347
/usr/include/stdlib.h, lines 530-531:	N347 -{int seed48_r(unsigned short int __seed16v[3], struct drand48_data *__buffer);}-> N348
/usr/include/stdlib.h, lines 533-535:	N348 -{int lcong48_r(unsigned short int __param[7], struct drand48_data *__buffer);}-> N349
/usr/include/stdlib.h, lines 540-541:	N349 -{void *malloc(size_t __size);}-> N350
/usr/include/stdlib.h, lines 543-544:	N350 -{void *calloc(size_t __nmemb, size_t __size);}-> N351
/usr/include/stdlib.h, lines 551-552:	N351 -{void *realloc(void *__ptr, size_t __size);}-> N352
/usr/include/stdlib.h, line 555:	N352 -{void free(void *__ptr);}-> N353
/usr/include/stdlib.h, lines 563-566:	N353 -{void *reallocarray(void *__ptr, size_t __nmemb, size_t __size);}-> N354
/usr/include/alloca.h, line 32:	N354 -{void *alloca(size_t __size);}-> N355
/usr/include/stdlib.h, lines 580-581:	N355 -{void *valloc(size_t __size);}-> N356
/usr/include/stdlib.h, lines 586-587:	N356 -{int posix_memalign(void **__memptr, size_t __alignment, size_t __size);}-> N357
/usr/include/stdlib.h, lines 592-594:	N357 -{void *aligned_alloc(size_t __alignment, size_t __size);}-> N358
/usr/include/stdlib.h, line 598:	N358 -{void abort();}-> N359
/usr/include/stdlib.h, line 602:	N359 -{int atexit(void (*__func)());}-> N360
/usr/include/stdlib.h, line 610:	N360 -{int at_quick_exit(void (*__func)());}-> N361
/usr/include/stdlib.h, lines 617-618:	N361 -{int on_exit(void (*__func)(int __status, void *__arg), void *__arg);}-> N362
/usr/include/stdlib.h, line 624:	N362 -{void exit(int __status);}-> N363
/usr/include/stdlib.h, line 630:	N363 -{void quick_exit(int __status);}-> N364
/usr/include/stdlib.h, line 636:	N364 -{void _Exit(int __status);}-> N365
/usr/include/stdlib.h, line 641:	N365 -{char *getenv(const char *__name);}-> N366
/usr/include/stdlib.h, line 654:	N366 -{int putenv(char *__string);}-> N367
/usr/include/stdlib.h, lines 660-661:	N367 -{int setenv(const char *__name, const char *__value, int __replace);}-> N368
/usr/include/stdlib.h, line 664:	N368 -{int unsetenv(const char *__name);}-> N369
/usr/include/stdlib.h, line 671:	N369 -{int clearenv();}-> N370
/usr/include/stdlib.h, line 682:	N370 -{char *mktemp(char *__template);}-> N371
/usr/include/stdlib.h, line 695:	N371 -{int mkstemp(char *__template);}-> N372
/usr/include/stdlib.h, line 717:	N372 -{int mkstemps(char *__template, int __suffixlen);}-> N373
/usr/include/stdlib.h, line 738:	N373 -{char *mkdtemp(char *__template);}-> N374
/usr/include/stdlib.h, line 791:	N374 -{int system(const char *__command);}-> N375
/usr/include/stdlib.h, lines 808-809:	N375 -{char *realpath(const char *__name, char *__resolved);}-> N376
/usr/include/stdlib.h, line 816:	N376 -{typedef int (*__compar_fn_t)(const void *, const void *);}-> N377
/usr/include/stdlib.h, lines 828-830:	N377 -{void *bsearch(const void *__key, const void *__base, size_t __nmemb, size_t __size, __compar_fn_t __compar);}-> N378
/usr/include/stdlib.h, lines 838-839:	N378 -{void qsort(void *__base, size_t __nmemb, size_t __size, __compar_fn_t __compar);}-> N379
/usr/include/stdlib.h, line 848:	N379 -{int abs(int __x);}-> N380
/usr/include/stdlib.h, line 849:	N380 -{long int labs(long int __x);}-> N381
/usr/include/stdlib.h, lines 852-853:	N381 -{long long int llabs(long long int __x);}-> N382
/usr/include/stdlib.h, lines 860-861:	N382 -{div_t div(int __numer, int __denom);}-> N383
/usr/include/stdlib.h, lines 862-863:	N383 -{ldiv_t ldiv(long int __numer, long int __denom);}-> N384
/usr/include/stdlib.h, lines 866-868:	N384 -{lldiv_t lldiv(long long int __numer, long long int __denom);}-> N385
/usr/include/stdlib.h, lines 880-881:	N385 -{char *ecvt(double __value, int __ndigit, int *__decpt, int *__sign);}-> N386
/usr/include/stdlib.h, lines 886-887:	N386 -{char *fcvt(double __value, int __ndigit, int *__decpt, int *__sign);}-> N387
/usr/include/stdlib.h, lines 892-893:	N387 -{char *gcvt(double __value, int __ndigit, char *__buf);}-> N388
/usr/include/stdlib.h, lines 898-900:	N388 -{char *qecvt(long double __value, int __ndigit, int *__decpt, int *__sign);}-> N389
/usr/include/stdlib.h, lines 901-903:	N389 -{char *qfcvt(long double __value, int __ndigit, int *__decpt, int *__sign);}-> N390
/usr/include/stdlib.h, lines 904-905:	N390 -{char *qgcvt(long double __value, int __ndigit, char *__buf);}-> N391
/usr/include/stdlib.h, lines 910-912:	N391 -{int ecvt_r(double __value, int __ndigit, int *__decpt, int *__sign, char *__buf, size_t __len);}-> N392
/usr/include/stdlib.h, lines 913-915:	N392 -{int fcvt_r(double __value, int __ndigit, int *__decpt, int *__sign, char *__buf, size_t __len);}-> N393
/usr/include/stdlib.h, lines 917-920:	N393 -{int qecvt_r(long double __value, int __ndigit, int *__decpt, int *__sign, char *__buf, size_t __len);}-> N394
/usr/include/stdlib.h, lines 921-924:	N394 -{int qfcvt_r(long double __value, int __ndigit, int *__decpt, int *__sign, char *__buf, size_t __len);}-> N395
/usr/include/stdlib.h, line 930:	N395 -{int mblen(const char *__s, size_t __n);}-> N396
/usr/include/stdlib.h, lines 933-934:	N396 -{int mbtowc(wchar_t *__pwc, const char *__s, size_t __n);}-> N397
/usr/include/stdlib.h, line 937:	N397 -{int wctomb(char *__s, wchar_t __wchar);}-> N398
/usr/include/stdlib.h, lines 941-943:	N398 -{size_t mbstowcs(wchar_t *__pwcs, const char *__s, size_t __n);}-> N399
/usr/include/stdlib.h, lines 945-949:	N399 -{size_t wcstombs(char *__s, const wchar_t *__pwcs, size_t __n);}-> N400
/usr/include/stdlib.h, line 956:	N400 -{int rpmatch(const char *__response);}-> N401
/usr/include/stdlib.h, lines 967-970:	N401 -{int getsubopt(char **__optionp, char * const *__tokens, char **__valuep);}-> N402
/usr/include/stdlib.h, lines 1013-1014:	N402 -{int getloadavg(double __loadavg[], int __nelem);}-> N403
lines 5-7:	N403 -{void assume(int cond);}-> N404
lines 9-39:	N404 -{int main();}-> N405
none:	N405 -{Function start dummy edge}-> N38
line 11:	N38 -{int local_28;}-> N39
	local_28 == 2;
line 12:	N39 -{int material_length;}-> N40
line 13:	N40 -{int tmp_var_3_int;}-> N41
	tmp_var_3_int == 8;
line 14:	N41 -{int idBitLength;}-> N42
line 15:	N42 -{int tmp_var_2_int;}-> N43
	tmp_var_2_int == 0;
line 16:	N43 -{int nlen;}-> N44
line 17:	N44 -{int tmp_var_1_int;}-> N45
line 18:	N45 -{int j;}-> N46
line 20:	N46 -{[tmp_var_2_int == (((int)(tmp_var_3_int + (((uint32_t )(tmp_var_3_int >> 31)) >> 27))) >> 5)]}-> N48
	tmp_var_2_int == 0;
	tmp_var_2_int == 0;
((int)(tmp_var_3_int + (((uint32_t )(tmp_var_3_int >> 31)) >> 27))) >> 5 == 0
line 21:	N48 -{for}-> N49
lines 21-36:	N49 -{nlen = 0;}-> N50
	nlen == 0;
lines 21-22:	N50 -{[nlen < (((int)(tmp_var_3_int + (((uint32_t )(tmp_var_3_int >> 31)) >> 29))) >> 3)]}-> N54
	nlen == 0;
	nlen == 0;
((int)(tmp_var_3_int + (((uint32_t )(tmp_var_3_int >> 31)) >> 29))) >> 3 == 1
lines 21-23:	N54 -{[nlen < local_28]}-> N52
	nlen == 0;
	local_28 == 2;
	nlen == 0;
local_28 == 2;
line 24:	N52 -{[!(nlen < 0)]}-> N55
	nlen == 0;
	nlen == 0;
line 27:	N55 -{[!(local_28 <= nlen)]}-> N68
	local_28 == 2;
	nlen == 0;
	local_28 == 2;
nlen == 0;
line 30:	N68 -{[!(nlen < -3)]}-> N81
	nlen == 0;
	nlen == 0;
line 33:	N81 -{[tmp_var_2_int <= (((int)(nlen + (((uint32_t )(nlen >> 31)) >> 30))) >> 2)]}-> N95
	tmp_var_2_int == 0;
	tmp_var_2_int == 0;
((int)(nlen + (((uint32_t )(nlen >> 31)) >> 30))) >> 2 == 0
line 34:	N95 -{int __CPAchecker_TMP_11;}-> N96
line 34:	N96 -{}-> N98
line 34:	N98 -{__CPAchecker_TMP_11 = 0;}-> N100
line 34:	N100 -{4UL;}-> N101
line 34:	N101 -{}-> N104
line 34:	N104 -{__assert_fail("0 && \"Assertion failed: j/4 < nlen\"", "/home/zyl/biVerify/CPA_DATA2/C/F/llmfix/realOutput/iterationTry/id_trans_process_dc_iter1.c", 34, "__PRETTY_FUNCTION__");}-> N407
